n = 16;

R =
[|0,0,0,0,0,0,0,0,0,0,0,1,1,0,0,0,
 |0,4,0,0,7,7,7,7,7,7,7,0,0,7,0,3,
 |0,4,0,0,6,8,8,8,8,8,8,8,8,7,0,3,
 |0,4,0,1,6,0,0,6,6,6,6,6,6,7,0,3,
 |0,4,0,0,6,5,0,0,0,0,0,0,0,7,0,0,
 |0,0,2,0,6,5,0,4,0,4,4,4,4,7,0,0,
 |0,0,2,0,6,5,0,4,0,0,0,0,8,7,0,1,
 |0,0,0,0,6,5,0,4,0,0,0,0,8,7,0,0,
 |0,0,0,2,2,5,0,4,0,0,0,0,8,0,0,0,
 |0,5,5,5,5,5,0,0,0,0,0,3,8,0,0,0,
 |0,0,0,0,0,1,1,0,0,0,1,3,8,0,2,0,
 |0,0,0,0,0,0,4,0,0,0,0,3,8,0,2,0,
 |4,4,4,4,0,0,4,0,0,0,0,0,8,1,3,0,
 |0,1,0,0,0,0,4,0,2,0,0,0,8,0,3,0,
 |1,0,0,0,0,0,4,1,2,0,0,0,0,0,3,0,
 |0,0,8,8,8,8,8,8,8,8,0,0,0,0,0,0,
 |];

